913694
64,23,58,89,33,70,53,97,22,10,27,45,66,26,1,63,4,2,84,88,7,52,90,41,96,34,82,14,60,57,81,15,85,80,44,86,75,87,49,35,37,79,98,67,71,43,54,92,48,5,74,68,40,17,55,9,76,29,95,20,19,59,30,61,62,12,31,69,8,32,56,46,0,73,36,47,3,65,6,13,38,91,83,21,72,94,24,77,50,78,28,39,93,25,16,11,18,42,51
